mixintcount/benchmarks/random_v2l/4_4_35.smt2
(set-logic QF_LIA)
(set-info :ran/ran2.smt2)
(set-info :smt-lib-version 2.0)
(declare-fun x1 () Int)
(declare-fun x2 () Int)
(declare-fun x3 () Int)
(declare-fun x4 () Int)
(assert (<= (+ (* (- 5) x1) (* (- 5) x2) (* (- 10) x3) (* 10 x4) ) 8))
(assert (<= (+ (* 3 x1) (* (- 6) x2) (* 2 x3) (* (- 7) x4) ) (- 34)))
(assert (<= (+ (* 2 x1) (* (- 5) x2) (* (- 5) x3) (* (- 7) x4) ) (- 30)))
(assert (<= (+ (* 6 x1) (* 9 x2) (* 8 x3) (* 0 x4) ) 23))
(assert (<= (+ (* 6 x1) (* (- 1) x2) (* (- 3) x3) (* 1 x4) ) (- 7)))
(assert (<= (+ (* (- 5) x1) (* (- 9) x2) (* 2 x3) (* (- 1) x4) ) (- 28)))
(assert (<= (+ (* 4 x1) (* 4 x2) (* 9 x3) (* 4 x4) ) 21))
(assert (<= (+ (* 5 x1) (* (- 6) x2) (* 8 x3) (* (- 6) x4) ) 3))
(assert (<= (+ (* 1 x1) (* 0 x2) (* 0 x3) (* 0 x4) ) 35))
(assert (<= (+ (* (- 1) x1) (* 0 x2) (* 0 x3) (* 0 x4) ) 35))
(assert (<= (+ (* 0 x1) (* 1 x2) (* 0 x3) (* 0 x4) ) 35))
(assert (<= (+ (* 0 x1) (* (- 1) x2) (* 0 x3) (* 0 x4) ) 35))
(assert (<= (+ (* 0 x1) (* 0 x2) (* 1 x3) (* 0 x4) ) 35))
(assert (<= (+ (* 0 x1) (* 0 x2) (* (- 1) x3) (* 0 x4) ) 35))
(assert (<= (+ (* 0 x1) (* 0 x2) (* 0 x3) (* 1 x4) ) 35))
(assert (<= (+ (* 0 x1) (* 0 x2) (* 0 x3) (* (- 1) x4) ) 35))
