mixintcount/benchmarks/random_v2l/4_4_35.in
16 6
#	x1	x2	x3	x4;		0 = Real; 1 = Integer
	1	1	1	1
1	-5	-5	-10	10	8
1	3	-6	2	-7	-34
1	2	-5	-5	-7	-30
1	6	9	8	0	23
1	6	-1	-3	1	-7
1	-5	-9	2	-1	-28
1	4	4	9	4	21
1	5	-6	8	-6	3
1	1	0	0	0	35
1	-1	0	0	0	35
1	0	1	0	0	35
1	0	-1	0	0	35
1	0	0	1	0	35
1	0	0	-1	0	35
1	0	0	0	1	35
1	0	0	0	-1	35
